Normalized Data/p04_7_normalized_split0.vrp
NAME:p04_7_NORMALIZED_split
BEST_KNOWN: 0
COMMENT: 0
DIMENSION: 633
CAPACITY: 100
EDGE_WEIGHT_FORMAT: FUNCTION
EDGE_WEIGHT_TYPE: EXACT_2D
NODE_COORD_SECTION
1 0.00000 0.00000
2 -42 -44
3 -42 -44
4 -42 -44
5 -42 -44
6 -42 -44
7 -42 -44
8 -42 -44
9 -35 -18
10 -35 -18
11 -35 -18
12 -35 -18
13 -35 -18
14 -26 34
15 -26 34
16 -26 34
17 2 39
18 2 39
19 2 39
20 31 27
21 31 27
22 31 27
23 31 27
24 31 27
25 31 27
26 26 32
27 26 32
28 26 32
29 26 32
30 49 -44
31 49 -44
32 49 -44
33 49 -44
34 49 -44
35 49 -44
36 -40 41
37 -40 41
38 -40 41
39 -40 41
40 -40 41
41 -40 41
42 28 -35
43 28 -35
44 28 -35
45 28 -35
46 -45 40
47 -45 40
48 -45 40
49 -45 40
50 -8 -10
51 -8 -10
52 -8 -10
53 2 -37
54 2 -37
55 2 -37
56 29 2
57 29 2
58 29 2
59 29 2
60 29 2
61 29 2
62 41 18
63 41 18
64 41 18
65 41 18
66 -27 38
67 -27 38
68 -27 38
69 -27 38
70 -27 38
71 -27 38
72 -27 38
73 -1 50
74 -1 50
75 -1 50
76 -1 50
77 -1 50
78 11 -46
79 11 -46
80 11 -46
81 11 -46
82 -49 22
83 -49 22
84 -49 22
85 -49 22
86 -49 22
87 45 -36
88 45 -36
89 45 -36
90 -34 23
91 -34 23
92 -34 23
93 6 -30
94 6 -30
95 6 -30
96 6 -30
97 6 -30
98 6 -30
99 6 -30
100 41 -6
101 41 -6
102 41 -6
103 41 -6
104 41 -6
105 41 -6
106 31 -12
107 31 -12
108 31 -12
109 -47 -25
110 -47 -25
111 -47 -25
112 -47 -25
113 -47 -25
114 -47 -25
115 47 11
116 47 11
117 47 11
118 47 11
119 47 11
120 47 11
121 42 48
122 42 48
123 42 48
124 26 -35
125 26 -35
126 26 -35
127 -38 36
128 -38 36
129 -38 36
130 43 15
131 43 15
132 43 15
133 35 39
134 35 39
135 35 39
136 35 39
137 35 39
138 35 39
139 -41 45
140 -41 45
141 -41 45
142 -41 45
143 -40 16
144 -40 16
145 -6 32
146 -6 32
147 -6 32
148 -6 32
149 -6 32
150 46 17
151 46 17
152 46 17
153 38 22
154 38 22
155 38 22
156 39 17
157 39 17
158 39 17
159 39 17
160 39 17
161 39 17
162 -1 44
163 -1 44
164 -1 44
165 43 30
166 43 30
167 43 30
168 43 30
169 43 30
170 43 30
171 -2 -26
172 -2 -26
173 -2 -26
174 -2 -26
175 -2 -26
176 1 35
177 1 35
178 1 35
179 1 35
180 1 35
181 22 -21
182 22 -21
183 22 -21
184 -21 23
185 -21 23
186 -21 23
187 -15 5
188 -15 5
189 -15 5
190 -15 5
191 -23 -45
192 -23 -45
193 -23 -45
194 44 13
195 44 13
196 44 13
197 44 13
198 15 -20
199 15 -20
200 15 -20
201 15 -20
202 33 0
203 33 0
204 33 0
205 33 0
206 33 0
207 -34 -31
208 -34 -31
209 -34 -31
210 -34 -31
211 -34 -31
212 -34 -31
213 -34 -31
214 10 -14
215 10 -14
216 10 -14
217 10 -14
218 10 -14
219 41 -29
220 41 -29
221 41 -29
222 22 -41
223 22 -41
224 22 -41
225 -24 43
226 -24 43
227 -24 43
228 -24 43
229 -24 43
230 -24 43
231 -24 -16
232 -24 -16
233 -24 -16
234 -24 -16
235 -24 -16
236 -24 -16
237 7 24
238 7 24
239 7 24
240 7 24
241 7 24
242 7 24
243 0 -2
244 0 -2
245 0 -2
246 0 -2
247 0 -2
248 9 -8
249 9 -8
250 9 -8
251 9 -8
252 9 -8
253 2 -34
254 2 -34
255 2 -34
256 2 -34
257 2 -34
258 46 44
259 46 44
260 42 -40
261 42 -40
262 42 -40
263 42 -40
264 42 -40
265 36 -4
266 36 -4
267 36 -4
268 36 -4
269 36 -4
270 -30 -14
271 -30 -14
272 -30 -14
273 -35 -13
274 -35 -13
275 -35 -13
276 -35 -13
277 -35 -13
278 -35 -13
279 -35 -13
280 -47 40
281 -47 40
282 -47 40
283 8 -16
284 8 -16
285 8 -16
286 8 -16
287 8 -16
288 40 31
289 40 31
290 40 31
291 -47 10
292 -47 10
293 -47 10
294 -8 -11
295 -8 -11
296 -8 -11
297 24 -39
298 24 -39
299 11 8
300 11 8
301 11 8
302 11 8
303 -5 -20
304 -5 -20
305 -5 -20
306 -5 -20
307 -22 -43
308 -22 -43
309 -22 -43
310 -22 -43
311 -22 -43
312 -20 49
313 -20 49
314 -20 49
315 48 -39
316 48 -39
317 48 -39
318 48 -39
319 48 -39
320 30 -3
321 30 -3
322 30 -3
323 30 -3
324 30 -3
325 3 43
326 3 43
327 3 43
328 -46 10
329 -38 24
330 -38 24
331 -38 24
332 -38 24
333 -11 4
334 -11 4
335 -11 4
336 -11 4
337 -11 4
338 -11 4
339 -37 -48
340 -37 -48
341 -37 -48
342 -37 -48
343 -37 -48
344 0 -34
345 0 -34
346 0 -34
347 0 -34
348 0 -34
349 5 -48
350 5 -48
351 5 -48
352 5 -48
353 17 -13
354 17 -13
355 17 -13
356 17 -13
357 -22 -16
358 -22 -16
359 -22 -16
360 -22 -16
361 -22 -16
362 17 -21
363 17 -21
364 -32 15
365 -32 15
366 -32 15
367 -32 15
368 -32 15
369 33 3
370 33 3
371 33 3
372 33 3
373 33 3
374 -11 32
375 -11 32
376 -41 11
377 -41 11
378 -41 11
379 -41 11
380 -41 11
381 -41 11
382 -41 11
383 31 -45
384 31 -45
385 31 -45
386 31 -45
387 -27 -13
388 -27 -13
389 -27 -13
390 25 35
391 25 35
392 25 35
393 25 35
394 25 35
395 0 -44
396 0 -44
397 0 -44
398 0 -44
399 1 13
400 1 13
401 1 13
402 1 13
403 -31 14
404 -31 14
405 32 -3
406 32 -3
407 32 -3
408 32 -3
409 32 -3
410 -8 -7
411 -8 -7
412 -8 -7
413 -6 28
414 -6 28
415 -6 28
416 -6 28
417 -6 28
418 -6 28
419 -47 39
420 -47 39
421 -47 39
422 -47 39
423 -47 39
424 -47 39
425 -2 50
426 -2 50
427 -2 50
428 -2 50
429 -2 50
430 43 4
431 43 4
432 43 4
433 43 4
434 2 -37
435 2 -37
436 2 -37
437 2 -37
438 -33 38
439 -33 38
440 -33 38
441 -33 38
442 -33 38
443 -33 38
444 7 -42
445 7 -42
446 12 -7
447 12 -7
448 12 -7
449 12 -7
450 32 -35
451 32 -35
452 32 -35
453 32 -35
454 32 -35
455 32 -35
456 19 16
457 19 16
458 19 16
459 19 16
460 19 16
461 19 16
462 -6 34
463 -6 34
464 -6 34
465 -6 34
466 47 11
467 47 11
468 47 11
469 47 11
470 -35 -20
471 -35 -20
472 -35 -20
473 -35 -20
474 -35 -20
475 -35 -20
476 49 -37
477 49 -37
478 49 -37
479 -30 42
480 -30 42
481 -30 42
482 43 22
483 43 22
484 43 22
485 -17 40
486 -17 40
487 -17 40
488 20 -47
489 20 -47
490 20 -47
491 20 -47
492 20 -47
493 20 -47
494 20 -47
495 -10 -17
496 -10 -17
497 -10 -17
498 -12 34
499 -12 34
500 -37 -3
501 -37 -3
502 -37 -3
503 -37 -3
504 -37 -3
505 35 -41
506 35 -41
507 35 -41
508 8 31
509 8 31
510 8 31
511 8 31
512 8 31
513 22 -13
514 22 -13
515 22 -13
516 22 -13
517 22 -13
518 -39 14
519 -39 14
520 29 32
521 29 32
522 29 32
523 29 32
524 38 -43
525 38 -43
526 38 -43
527 -9 38
528 -9 38
529 -9 38
530 -2 15
531 -2 15
532 -44 -1
533 -44 -1
534 -44 -1
535 -44 -1
536 -44 -1
537 -44 -1
538 -44 -1
539 -48 -39
540 -48 -39
541 -48 -39
542 -48 -39
543 -48 -39
544 37 -17
545 37 -17
546 37 -17
547 37 -17
548 37 -17
549 37 -17
550 44 14
551 44 14
552 44 14
553 44 14
554 -16 40
555 38 4
556 38 4
557 38 4
558 38 4
559 35 17
560 35 17
561 35 17
562 35 17
563 -46 -12
564 -46 -12
565 -46 -12
566 -42 -36
567 -42 -36
568 -42 -36
569 30 10
570 30 10
571 30 10
572 30 10
573 -41 48
574 -41 48
575 -41 48
576 -41 48
577 -41 48
578 -41 48
579 -41 48
580 16 5
581 16 5
582 16 5
583 16 5
584 16 5
585 16 32
586 16 32
587 16 32
588 16 32
589 16 32
590 9 -6
591 9 -6
592 9 -6
593 9 -6
594 32 -19
595 32 -19
596 32 -19
597 -16 -32
598 -16 -32
599 -16 -32
600 -16 -32
601 -16 -32
602 -17 2
603 -17 2
604 -17 2
605 -17 2
606 -46 5
607 -46 5
608 -46 5
609 -46 5
610 -46 5
611 -46 5
612 6 -48
613 6 -48
614 6 -48
615 21 44
616 12 10
617 12 10
618 12 10
619 12 10
620 -33 -9
621 -33 -9
622 -33 -9
623 -33 -9
624 -33 -9
625 4 -45
626 4 -45
627 4 -45
628 4 -45
629 -26 39
630 -26 39
631 44 32
632 44 32
633 44 32
DEMAND_SECTION
1 0
2 20
3 20
4 5
5 1
6 1
7 1
8 1
9 20
10 10
11 1
12 1
13 1
14 10
15 5
16 1
17 20
18 20
19 5
20 20
21 5
22 1
23 1
24 1
25 1
26 10
27 1
28 1
29 1
30 20
31 20
32 5
33 1
34 1
35 1
36 20
37 20
38 5
39 1
40 1
41 1
42 20
43 5
44 1
45 1
46 10
47 1
48 1
49 1
50 20
51 20
52 1
53 10
54 5
55 1
56 20
57 20
58 5
59 1
60 1
61 1
62 20
63 5
64 1
65 1
66 20
67 20
68 5
69 1
70 1
71 1
72 1
73 20
74 1
75 1
76 1
77 1
78 10
79 1
80 1
81 1
82 20
83 20
84 1
85 1
86 1
87 20
88 10
89 1
90 10
91 5
92 1
93 20
94 10
95 5
96 1
97 1
98 1
99 1
100 20
101 20
102 1
103 1
104 1
105 1
106 20
107 5
108 1
109 20
110 5
111 1
112 1
113 1
114 1
115 20
116 20
117 1
118 1
119 1
120 1
121 20
122 10
123 1
124 20
125 20
126 10
127 20
128 10
129 1
130 10
131 5
132 1
133 20
134 5
135 1
136 1
137 1
138 1
139 20
140 20
141 5
142 1
143 10
144 5
145 20
146 1
147 1
148 1
149 1
150 20
151 1
152 1
153 20
154 20
155 1
156 20
157 20
158 5
159 1
160 1
161 1
162 10
163 5
164 1
165 20
166 20
167 5
168 1
169 1
170 1
171 10
172 1
173 1
174 1
175 1
176 20
177 1
178 1
179 1
180 1
181 20
182 5
183 1
184 20
185 20
186 1
187 20
188 20
189 5
190 1
191 20
192 20
193 10
194 10
195 5
196 1
197 1
198 20
199 5
200 1
201 1
202 10
203 1
204 1
205 1
206 1
207 20
208 10
209 5
210 1
211 1
212 1
213 1
214 20
215 20
216 5
217 1
218 1
219 10
220 5
221 1
222 20
223 5
224 1
225 10
226 5
227 1
228 1
229 1
230 1
231 20
232 10
233 1
234 1
235 1
236 1
237 20
238 20
239 1
240 1
241 1
242 1
243 20
244 1
245 1
246 1
247 1
248 20
249 20
250 5
251 1
252 1
253 10
254 1
255 1
256 1
257 1
258 20
259 20
260 20
261 1
262 1
263 1
264 1
265 10
266 5
267 1
268 1
269 1
270 10
271 1
272 1
273 20
274 10
275 5
276 1
277 1
278 1
279 1
280 20
281 20
282 5
283 20
284 10
285 1
286 1
287 1
288 20
289 5
290 1
291 20
292 20
293 1
294 10
295 5
296 1
297 20
298 10
299 10
300 1
301 1
302 1
303 20
304 20
305 5
306 1
307 20
308 5
309 1
310 1
311 1
312 20
313 20
314 1
315 10
316 1
317 1
318 1
319 1
320 20
321 10
322 1
323 1
324 1
325 20
326 1
327 1
328 20
329 10
330 1
331 1
332 1
333 20
334 20
335 5
336 1
337 1
338 1
339 10
340 5
341 1
342 1
343 1
344 10
345 1
346 1
347 1
348 1
349 20
350 5
351 1
352 1
353 20
354 1
355 1
356 1
357 20
358 10
359 5
360 1
361 1
362 10
363 5
364 10
365 1
366 1
367 1
368 1
369 20
370 20
371 1
372 1
373 1
374 20
375 5
376 20
377 20
378 5
379 1
380 1
381 1
382 1
383 20
384 20
385 5
386 1
387 20
388 5
389 1
390 10
391 1
392 1
393 1
394 1
395 20
396 5
397 1
398 1
399 20
400 10
401 5
402 1
403 20
404 5
405 20
406 10
407 1
408 1
409 1
410 10
411 5
412 1
413 10
414 5
415 1
416 1
417 1
418 1
419 20
420 5
421 1
422 1
423 1
424 1
425 20
426 20
427 5
428 1
429 1
430 20
431 20
432 1
433 1
434 20
435 5
436 1
437 1
438 20
439 20
440 5
441 1
442 1
443 1
444 20
445 10
446 20
447 5
448 1
449 1
450 20
451 5
452 1
453 1
454 1
455 1
456 20
457 20
458 1
459 1
460 1
461 1
462 20
463 10
464 1
465 1
466 20
467 5
468 1
469 1
470 20
471 20
472 1
473 1
474 1
475 1
476 20
477 20
478 1
479 20
480 5
481 1
482 10
483 5
484 1
485 20
486 1
487 1
488 20
489 10
490 5
491 1
492 1
493 1
494 1
495 20
496 10
497 1
498 20
499 1
500 20
501 20
502 5
503 1
504 1
505 20
506 10
507 5
508 20
509 20
510 1
511 1
512 1
513 20
514 5
515 1
516 1
517 1
518 20
519 20
520 20
521 10
522 5
523 1
524 20
525 5
526 1
527 20
528 20
529 10
530 20
531 10
532 20
533 10
534 5
535 1
536 1
537 1
538 1
539 10
540 1
541 1
542 1
543 1
544 20
545 20
546 5
547 1
548 1
549 1
550 10
551 1
552 1
553 1
554 20
555 10
556 5
557 1
558 1
559 20
560 5
561 1
562 1
563 20
564 20
565 1
566 20
567 10
568 1
569 20
570 20
571 1
572 1
573 20
574 20
575 5
576 1
577 1
578 1
579 1
580 20
581 10
582 1
583 1
584 1
585 20
586 20
587 1
588 1
589 1
590 20
591 5
592 1
593 1
594 20
595 20
596 10
597 20
598 10
599 1
600 1
601 1
602 20
603 1
604 1
605 1
606 20
607 10
608 5
609 1
610 1
611 1
612 20
613 10
614 1
615 20
616 20
617 20
618 1
619 1
620 20
621 5
622 1
623 1
624 1
625 10
626 5
627 1
628 1
629 10
630 5
631 20
632 20
633 10
DEPOT_SECTION
1
-1
EOF