Normalized Data/p04_7_normalized_split0.sol
632 -23 21 22 19 24 20 288 289 287 521 522 519 520 -26 27 28 25 393 392 389 390 391 614 587 586 585 588 584 -39 38 40 138 139 141 140 575 576 572 577 573 574 578 -45 47 46 48 281 280 279 421 419 420 422 418 423 89 91 -55 59 60 371 369 368 370 372 321 320 322 323 319 -57 58 56 556 554 557 555 431 432 429 430 201 202 203 204 205 -65 36 37 35 128 126 127 -77 80 78 79 613 611 612 351 350 348 349 395 394 396 397 256 255 -86 88 87 315 316 314 475 476 477 219 218 220 -90 330 329 331 328 82 81 83 85 84 142 143 364 366 402 -104 99 102 103 100 101 266 267 264 268 265 408 406 405 407 404 -107 105 106 545 543 547 544 548 546 353 355 352 354 -123 124 125 41 449 454 452 450 451 453 -131 130 129 551 552 150 149 151 483 482 481 152 154 153 561 560 -137 133 136 132 134 135 120 122 121 257 258 -158 157 160 155 159 156 62 64 63 61 559 558 -162 163 161 74 73 76 75 72 425 426 428 424 427 530 -168 167 169 164 165 166 631 632 630 -174 172 173 171 170 343 253 254 252 93 97 95 98 94 92 96 285 284 282 -179 177 178 175 176 18 17 16 324 325 326 -180 595 593 594 513 516 515 512 514 592 -182 181 42 43 44 504 505 506 382 385 383 384 -184 183 13 15 14 66 69 67 70 71 68 629 628 -185 437 438 441 439 442 440 478 479 480 228 226 229 227 225 224 -189 186 187 188 337 336 332 333 334 335 -209 210 211 212 208 207 206 540 541 538 542 539 109 108 110 113 112 111 274 276 275 278 273 -216 214 217 215 213 361 362 198 197 200 199 286 283 -239 240 236 238 237 241 507 510 508 509 511 401 399 -242 244 246 243 245 -251 250 249 247 248 446 448 447 445 590 591 589 -261 262 259 260 263 318 317 32 30 31 29 34 33 524 523 525 -272 277 11 8 9 12 10 474 470 471 473 469 472 -293 295 294 49 51 50 411 409 410 -296 297 221 223 222 492 489 490 493 491 488 487 -300 298 301 299 457 458 460 459 455 456 569 570 571 568 -305 302 303 304 596 600 597 598 599 494 -306 307 308 310 309 190 192 191 357 496 495 -340 339 342 341 338 1 3 4 5 6 7 2 565 567 566 -345 347 346 344 436 435 53 54 52 433 434 625 627 626 624 444 443 -359 358 356 360 232 235 230 231 233 234 271 270 269 388 386 387 -373 497 498 526 528 527 148 417 415 414 413 -375 378 379 376 380 518 517 367 363 365 403 -381 377 327 290 292 291 601 602 604 603 -400 398 464 462 463 461 146 145 147 144 529 -412 416 374 553 312 313 311 484 486 485 -467 465 466 468 117 115 118 116 119 114 194 195 193 196 549 550 -499 501 562 564 563 621 622 623 619 620 -503 502 500 534 535 531 536 537 533 532 606 610 605 608 607 609 -580 581 583 579 582 615 616 617 618 0 





OBJ=
4429.266
BEST_KNOWN=
0.000